$molecule
 0 1
 O      0.0000000000      0.0000000000      1.1264149236
 C     -1.0884476041      0.0000000000      0.3199990614
 C      1.0884476041      0.0000000000      0.3199990614
 C     -0.7167401160      0.0000000000     -0.9846440250
 C      0.7167401160      0.0000000000     -0.9846440250
 H     -2.0431194531      0.0000000000      0.8222842755
 H      2.0431194531      0.0000000000      0.8222842755
 H     -1.3734804501      0.0000000000     -1.8423154267
 H      1.3734804501      0.0000000000     -1.8423154267
 C      12.0671804404      11.0487690148      10.9137308895
 N      10.9134272012      11.8285561307      10.9111221226
 C      11.5793530333      9.6258828945      10.9143575170
 O      13.2037374174      11.4511477454      10.9134695302
 C      9.7596780181      11.0487647970      10.9137307852
 C      10.2475113929      9.6258802341      10.9143574950
 O      8.6231185504      11.4511374479      10.9134695455
 H      10.9134257605      12.8374196409      10.9123461058
 H      12.2628348566      8.7874864758      10.9147104260
 H      9.5640329718      8.7874810089      10.9147103493
 ****
 O      0.9843136848      0.0001939064     -1.2700854137
 C      1.2018072722      1.0638604652     -0.3481287195
 C      1.2014779615     -1.0640447886     -0.3487291222
 C      2.5167613706      0.6653471909      0.3045616315
 C      2.5165512731     -0.6663029792      0.3041970070
 H      1.1340776952      2.0324296066     -0.8400888773
 H      1.1334694635     -2.0323256112     -0.8412182486
 H      3.2304071732      1.3470457700      0.7490201534
 H      3.2299957789     -1.3484699506      0.7482615305
 C     -1.2895867836      1.1696561043      0.1660691853
 N     -1.9956998232      0.0003416855     -0.0785977607
 C      0.0779075508      0.7712194159      0.7029917152
 O     -1.6989412659      2.2874289276     -0.0321646374
 C     -1.2899612525     -1.1693403178      0.1653919771
 C      0.0776601898     -0.7716526210      0.7025508488
 O     -1.6996804225     -2.2868678292     -0.0334701614
 H     -2.9147885589      0.0006105713     -0.5010845723
 H      0.2563123391      1.2520952292      1.6659671906
 H      0.2559047990     -1.2531334306      1.6652523871
$end

$rem
   job_type = gsm
   basis = 6-31g*
   max_scf_cycles = 200
   gen_scfman = true
   xc_grid = 3
   scf_algorithm = diis_gdm
   resp_charges = true
   symmetry = false
   sym_ignore = true
   method = wb97xd
   fsm_mode = 2
   fsm_nnode = 15
   fsm_ngrad = 4
   fsm_opt_mode = 2
$end
