$molecule
 -1 1
 O     -0.6334776501      0.0777732237      1.1783842474
 C     -0.6606720018     -0.2605260574     -0.0465794763
 O      0.4450578721     -0.5106988810     -0.7282300874
 O     -1.7657361304     -0.3923415860     -0.6662039280
 Li     -2.4950478213      0.1381002622      0.9705250983
 C      1.7695161019     -0.1519175981     -0.0820796191
 C      2.1476883625      1.2769764739     -0.1746206443
 H      1.6752586368     -0.5448954558      0.9337631560
 H      2.4313688991     -0.8119304580     -0.6513035901
 H      3.0846715122      1.4294778816     -0.7234822145
 H      2.2043143032      1.7742659941      0.8010182074
 ****
 O     -1.1001132060      0.9144522394      0.4986492806
 C     -0.1889365158      0.1568870590      0.0853726293
 O     -0.4341732277     -0.9118306936     -0.6432513491
 O      1.0830344995      0.3727433204      0.3482606009
 Li      1.3670969611     -1.1367146003     -0.6171732261
 C      7.8221236783      8.4297911461      8.4017268032
 C      9.1357371110      8.5281016870      8.5561163105
 H      7.1317037807      8.8454577177      9.1306924642
 H      7.3866951992      7.9298822593      7.5407593451
 H      9.5711768442      9.0278548504      9.4171695657
 H      9.8261424984      8.1121416579      7.8273075721
$end

$rem
   job_type = fsm
   basis = def2-tzvppd
   max_scf_cycles = 200
   gen_scfman = true
   xc_grid = 3
   scf_algorithm = diis_gdm
   resp_charges = true
   symmetry = false
   sym_ignore = true
   method = wb97xv
   fsm_mode = 2
   fsm_nnode = 15
   fsm_ngrad = 4
   fsm_opt_mode = 2
   solvent_method = smd
   ideriv = 1
   thresh = 14
$end

$smx
   solvent other
$end
